NAME : portcgen-23-6
COMMENT : portcgen N=23, seed=6
TYPE : TSP
DIMENSION : 23
EDGE_WEIGHT_TYPE : EUC_2D
NODE_COORD_SECTION
1 -77281 163873
2 65788 -141106
3 179237 10567
4 101303 221541
5 -128914 147323
6 66627 -103052
7 279835 468566
8 158861 -192326
9 -103873 -144496
10 54015 -291047
11 130516 -69075
12 -158463 109396
13 -193295 -291851
14 3359 30169
15 135296 298401
16 -103269 -26761
17 134064 -288555
18 7664 -29211
19 112111 119040
20 137078 163580
21 -376813 51205
22 -38229 -204603
23 -576859 -80150
